datasets/2-dimensional/CL_02_25_01.vbp
2
1000 1000 
25
217 84 30
716 851 72
57 736 4
126 294 88
145 414 54
671 319 64
592 563 90
132 36 26
843 959 94
618 889 28
676 715 72
575 658 49
202 275 54
780 453 19
864 416 28
344 718 61
442 250 84
712 232 23
45 221 67
661 105 53
118 106 54
304 780 16
440 18 9
83 39 54
121 399 77
