datasets/2-dimensional/CL_02_25_01.txt
1000 1000 
0 30 217 84 
1 72 716 851 
2 4 57 736 
3 88 126 294 
4 54 145 414 
5 64 671 319 
6 90 592 563 
7 26 132 36 
8 94 843 959 
9 28 618 889 
10 72 676 715 
11 49 575 658 
12 54 202 275 
13 19 780 453 
14 28 864 416 
15 61 344 718 
16 84 442 250 
17 23 712 232 
18 67 45 221 
19 53 661 105 
20 54 118 106 
21 16 304 780 
22 9 440 18 
23 54 83 39 
24 77 121 399 
